 $CONTRL SCFTYP=UHF ICHARG=0 MULT=2
 RUNTYP=OPTIMIZE
 $END
 $BASIS GBASIS=N31 NGAUSS=6 NDFUNC=1 $END 
 $DATA
 ... this is comment ...
 C1
 BE    4   0.00000000   0.00000000   0.27098860
 H     1   0.00000000   0.00000000  -1.07727360
 $END

