 $CONTRL SCFTYP=UHF ICHARG=0 MULT=1
 RUNTYP=OPTIMIZE
 $END
 $BASIS GBASIS=N31 NGAUSS=6 NDFUNC=1 $END 
 $DATA
 ... this is comment ...
 C1
 C     6  -0.00000000   0.00000000   0.66818705
 C     6   0.00000000  -0.00000000  -0.66818705
 H     1   0.00000000   0.92327180   1.23827410
 H     1  -0.00000000  -0.92327180   1.23827410
 H     1  -0.00000000   0.92327180  -1.23827410
 H     1   0.00000000  -0.92327180  -1.23827410
 $END

