 $CONTRL SCFTYP=UHF ICHARG=0 MULT=1
 RUNTYP=OPTIMIZE
 $END
 $BASIS GBASIS=N31 NGAUSS=6 NDFUNC=1 $END 
 $DATA
 ... this is comment ...
 C1
 C     6   0.00000001   0.00000007   0.76303304
 C     6  -0.00000001  -0.00000006  -0.76303304
 H     1  -0.00000004   1.01932700   1.15810819
 H     1  -0.88276298  -0.50966354   1.15810813
 H     1   0.88276304  -0.50966347   1.15810815
 H     1  -0.00000004  -1.01932700  -1.15810817
 H     1  -0.88276300   0.50966354  -1.15810816
 H     1   0.88276303   0.50966347  -1.15810813
 $END

