 $CONTRL SCFTYP=UHF ICHARG=0 MULT=3
 RUNTYP=OPTIMIZE
 $END
 $BASIS GBASIS=N31 NGAUSS=6 NDFUNC=1 $END 
 $DATA
 ... this is comment ...
 C1
 C     6   0.00000000  -0.00000000   0.11806368
 H     1   0.00000000   0.98278580  -0.32389534
 H     1  -0.00000000  -0.98278580  -0.32389534
 $END

