 $CONTRL SCFTYP=UHF ICHARG=0 MULT=1
 RUNTYP=OPTIMIZE
 $END
 $BASIS GBASIS=N31 NGAUSS=6 NDFUNC=1 $END 
 $DATA
 ... this is comment ...
 C1
 C     6   0.00000000   0.00000000   0.16539864
 H     1  -0.00000000   0.86239808  -0.53249432
 H     1  -0.00000000  -0.86239808  -0.53249432
 $END

