 $CONTRL SCFTYP=UHF ICHARG=0 MULT=1
 RUNTYP=OPTIMIZE
 $END
 $BASIS GBASIS=N31 NGAUSS=6 NDFUNC=1 $END 
 $DATA
 ... this is comment ...
 C1
 O     8   0.00000000  -0.00000010   0.68619390
 C     6  -0.00000000   0.00000008  -0.53487489
 H     1   0.00000000   0.93443304  -1.12303958
 H     1   0.00000000  -0.93443302  -1.12303943
 $END

