 $CONTRL SCFTYP=UHF ICHARG=0 MULT=2
 RUNTYP=OPTIMIZE
 $END
 $BASIS GBASIS=N31 NGAUSS=6 NDFUNC=1 $END 
 $DATA
 ... this is comment ...
 C1
 C     6   0.00000000   0.00000027  -0.00000000
 H     1  -0.00000001   1.07873679   0.00000000
 H     1   0.93421299  -0.53936853   0.00000000
 H     1  -0.93421299  -0.53936852   0.00000000
 $END

