 $CONTRL SCFTYP=UHF ICHARG=0 MULT=1
 RUNTYP=OPTIMIZE
 $END
 $BASIS GBASIS=N31 NGAUSS=6 NDFUNC=1 $END 
 $DATA
 ... this is comment ...
 C1
 C     6   0.00000001   0.00000019  -1.12634264
 CL   17   0.00000001  -0.00000012   0.65235806
 H     1  -0.00000002   1.02984568  -1.47892526
 H     1   0.89187231  -0.51492289  -1.47892506
 H     1  -0.89187231  -0.51492286  -1.47892509
 $END

