 $CONTRL SCFTYP=UHF ICHARG=0 MULT=1
 RUNTYP=OPTIMIZE
 $END
 $BASIS GBASIS=N31 NGAUSS=6 NDFUNC=1 $END 
 $DATA
 ... this is comment ...
 C1
 C     6   0.00000000   0.00000000  -0.00000000
 H     1   0.62933687   0.62933687   0.62933686
 H     1  -0.62933687  -0.62933687   0.62933686
 H     1   0.62933687  -0.62933687  -0.62933686
 H     1  -0.62933687   0.62933687  -0.62933686
 $END

