 $CONTRL SCFTYP=UHF ICHARG=0 MULT=1
 RUNTYP=OPTIMIZE
 $END
 $BASIS GBASIS=N31 NGAUSS=6 NDFUNC=1 $END 
 $DATA
 ... this is comment ...
 C1
 C     6  -0.04739228   0.66701528   0.00000006
 O     8  -0.05166993  -0.75742711  -0.00000039
 H     1  -1.09259134   0.97598730   0.00000008
 H     1   0.87329703  -1.04999270   0.00000030
 H     1   0.43829785   1.08155364   0.89210886
 H     1   0.43829767   1.08155359  -0.89210892
 $END

