 $CONTRL SCFTYP=UHF ICHARG=0 MULT=1
 RUNTYP=OPTIMIZE
 $END
 $BASIS GBASIS=N31 NGAUSS=6 NDFUNC=1 $END 
 $DATA
 ... this is comment ...
 C1
 C     6  -0.04804134   1.15089562  -0.00000001
 S    16  -0.04799083  -0.66528280   0.00000018
 H     1   1.28307340  -0.82361534  -0.00000017
 H     1  -1.09292044   1.46340945  -0.00000007
 H     1   0.43256353   1.55254655   0.89253758
 H     1   0.43256368   1.55254652  -0.89253752
 $END

