 $CONTRL SCFTYP=UHF ICHARG=0 MULT=2
 RUNTYP=OPTIMIZE
 $END
 $BASIS GBASIS=N31 NGAUSS=6 NDFUNC=1 $END 
 $DATA
 ... this is comment ...
 C1
 C     6   0.00000000   0.00000000   0.15645494
 H     1   0.00000000   0.00000000  -0.96404494
 $END

