 $CONTRL SCFTYP=UHF ICHARG=0 MULT=2
 RUNTYP=OPTIMIZE
 $END
 $BASIS GBASIS=N31 NGAUSS=6 NDFUNC=1 $END 
 $DATA
 ... this is comment ...
 C1
 C     6   0.06418122   0.59429761   0.00000000
 O     8   0.06030668  -0.59761976  -0.00000000
 H     1  -0.87269390   1.21439215   0.00000000
 $END

