 $CONTRL SCFTYP=UHF ICHARG=0 MULT=2
 RUNTYP=OPTIMIZE
 $END
 $BASIS GBASIS=N31 NGAUSS=6 NDFUNC=1 $END 
 $DATA
 ... this is comment ...
 C1
 CL   17   0.00000000   0.00000000   0.51768002
 O     8   0.00000000   0.00000000  -1.09102602
 $END

