 $CONTRL SCFTYP=UHF ICHARG=0 MULT=1
 RUNTYP=OPTIMIZE
 $END
 $BASIS GBASIS=N31 NGAUSS=6 NDFUNC=1 $END 
 $DATA
 ... this is comment ...
 C1
 C     6  -0.00000000   0.00000000   0.00000000
 O     8   0.00000000  -0.00000000   1.17969244
 O     8   0.00000000  -0.00000000  -1.17969244
 $END

