 $CONTRL SCFTYP=UHF ICHARG=0 MULT=1
 RUNTYP=OPTIMIZE
 $END
 $BASIS GBASIS=N31 NGAUSS=6 NDFUNC=1 $END 
 $DATA
 ... this is comment ...
 C1
 F     9   0.00000000   0.00000000   0.71043244
 F     9   0.00000000   0.00000000  -0.71043244
 $END

