 $CONTRL SCFTYP=UHF ICHARG=0 MULT=1
 RUNTYP=OPTIMIZE
 $END
 $BASIS GBASIS=N31 NGAUSS=6 NDFUNC=1 $END 
 $DATA
 ... this is comment ...
 C1
 O     8  -0.02198499   0.73419510  -0.03034322
 O     8   0.02198499  -0.73419510  -0.03034322
 H     1   0.81426131   0.90560756   0.44224522
 H     1  -0.81426131  -0.90560755   0.44224522
 $END

