 $CONTRL SCFTYP=UHF ICHARG=0 MULT=1
 RUNTYP=OPTIMIZE
 $END
 $BASIS GBASIS=N31 NGAUSS=6 NDFUNC=1 $END 
 $DATA
 ... this is comment ...
 C1
 O     8   0.00000000  -0.00000000   0.12042536
 H     1  -0.00000000   0.76320885  -0.47615368
 H     1  -0.00000000  -0.76320885  -0.47615368
 $END

