 $CONTRL SCFTYP=UHF ICHARG=0 MULT=1
 RUNTYP=OPTIMIZE
 $END
 $BASIS GBASIS=N31 NGAUSS=6 NDFUNC=1 $END 
 $DATA
 ... this is comment ...
 C1
 CL   17   0.00000000   0.00000000   0.06950570
 H     1   0.00000000   0.00000000  -1.21054870
 $END

