 $CONTRL SCFTYP=UHF ICHARG=0 MULT=1
 RUNTYP=OPTIMIZE
 $END
 $BASIS GBASIS=N31 NGAUSS=6 NDFUNC=1 $END 
 $DATA
 ... this is comment ...
 C1
 O     8   0.03958103   1.10994970  -0.00000000
 H     1  -0.91510013   1.32411377   0.00000000
 CL   17   0.03936011  -0.60742447   0.00000000
 $END

