 $CONTRL SCFTYP=UHF ICHARG=0 MULT=1
 RUNTYP=OPTIMIZE
 $END
 $BASIS GBASIS=N31 NGAUSS=6 NDFUNC=1 $END 
 $DATA
 ... this is comment ...
 C1
 LI    3   0.00000000   0.00000000  -1.17591307
 F     9   0.00000000   0.00000000   0.39411507
 $END

