 $CONTRL SCFTYP=UHF ICHARG=0 MULT=1
 RUNTYP=OPTIMIZE
 $END
 $BASIS GBASIS=N31 NGAUSS=6 NDFUNC=1 $END 
 $DATA
 ... this is comment ...
 C1
 N     7   0.00480615   0.71969321  -0.07545100
 N     7  -0.00480613  -0.71969320  -0.07545096
 H     1   0.21721225   1.09102430   0.85111966
 H     1  -0.94231286   1.01103391  -0.30118567
 H     1  -0.21721227  -1.09102431   0.85111966
 H     1   0.94231286  -1.01103391  -0.30118569
 $END

