 $CONTRL SCFTYP=UHF ICHARG=0 MULT=1
 RUNTYP=OPTIMIZE
 $END
 $BASIS GBASIS=N31 NGAUSS=6 NDFUNC=1 $END 
 $DATA
 ... this is comment ...
 C1
 NA   11   0.00000000   0.00000000  -1.44947936
 CL   17   0.00000000   0.00000000   0.94360136
 $END

