 $CONTRL SCFTYP=UHF ICHARG=0 MULT=2
 RUNTYP=OPTIMIZE
 $END
 $BASIS GBASIS=N31 NGAUSS=6 NDFUNC=1 $END 
 $DATA
 ... this is comment ...
 C1
 N     7   0.00000000   0.00000000   0.13655944
 H     1   0.00000000   0.80655605  -0.50133572
 H     1   0.00000000  -0.80655605  -0.50133572
 $END

