 $CONTRL SCFTYP=UHF ICHARG=0 MULT=1
 RUNTYP=OPTIMIZE
 $END
 $BASIS GBASIS=N31 NGAUSS=6 NDFUNC=1 $END 
 $DATA
 ... this is comment ...
 C1
 N     7   0.00000000  -0.00000034   0.11077108
 H     1  -0.00000000   0.93985052  -0.27795679
 H     1   0.81393483  -0.46992559  -0.27795664
 H     1  -0.81393483  -0.46992559  -0.27795664
 $END

