 $CONTRL SCFTYP=UHF ICHARG=0 MULT=2
 RUNTYP=OPTIMIZE
 $END
 $BASIS GBASIS=N31 NGAUSS=6 NDFUNC=1 $END 
 $DATA
 ... this is comment ...
 C1
 N     7   0.00000000   0.00000000  -0.60983420
 O     8   0.00000000   0.00000000   0.53308520
 $END

