 $CONTRL SCFTYP=UHF ICHARG=0 MULT=3
 RUNTYP=OPTIMIZE
 $END
 $BASIS GBASIS=N31 NGAUSS=6 NDFUNC=1 $END 
 $DATA
 ... this is comment ...
 C1
 O     8   0.00000000   0.00000000   0.62337483
 O     8   0.00000000   0.00000000  -0.62337483
 $END

