 $CONTRL SCFTYP=UHF ICHARG=0 MULT=2
 RUNTYP=OPTIMIZE
 $END
 $BASIS GBASIS=N31 NGAUSS=6 NDFUNC=1 $END 
 $DATA
 ... this is comment ...
 C1
 P    15   0.00000000   0.00000000   0.10747488
 H     1   0.00000000   1.02592521  -0.87308544
 H     1   0.00000000  -1.02592521  -0.87308544
 $END

