 $CONTRL SCFTYP=UHF ICHARG=0 MULT=1
 RUNTYP=OPTIMIZE
 $END
 $BASIS GBASIS=N31 NGAUSS=6 NDFUNC=1 $END 
 $DATA
 ... this is comment ...
 C1
 P    15   0.00000002  -0.00000020   0.10956765
 H     1  -0.00000004   1.20088729  -0.63808496
 H     1   1.03999937  -0.60044357  -0.63808484
 H     1  -1.03999935  -0.60044352  -0.63808485
 $END

