 $CONTRL SCFTYP=UHF ICHARG=0 MULT=3
 RUNTYP=OPTIMIZE
 $END
 $BASIS GBASIS=N31 NGAUSS=6 NDFUNC=1 $END 
 $DATA
 ... this is comment ...
 C1
 S    16   0.00000000   0.00000000   0.96084189
 S    16   0.00000000   0.00000000  -0.96084189
 $END

