 $CONTRL SCFTYP=UHF ICHARG=0 MULT=1
 RUNTYP=OPTIMIZE
 $END
 $BASIS GBASIS=N31 NGAUSS=6 NDFUNC=1 $END 
 $DATA
 ... this is comment ...
 C1
 S    16   0.00000000  -0.00000000   0.09549119
 H     1  -0.00000000   0.97455108  -0.82357560
 H     1  -0.00000000  -0.97455108  -0.82357560
 $END

