 $CONTRL SCFTYP=UHF ICHARG=0 MULT=3
 RUNTYP=OPTIMIZE
 $END
 $BASIS GBASIS=N31 NGAUSS=6 NDFUNC=1 $END 
 $DATA
 ... this is comment ...
 C1
 SI   14   0.00000000   0.00000000   1.08869357
 SI   14   0.00000000   0.00000000  -1.08869357
 $END

