 $CONTRL SCFTYP=UHF ICHARG=0 MULT=1
 RUNTYP=OPTIMIZE
 $END
 $BASIS GBASIS=N31 NGAUSS=6 NDFUNC=1 $END 
 $DATA
 ... this is comment ...
 C1
 SI   14   0.00000010   0.00001907   1.17417262
 SI   14  -0.00000102  -0.00002197  -1.17417334
 H     1  -0.00000210   1.39854538   1.69431417
 H     1  -1.21113650  -0.69928324   1.69432052
 H     1   1.21113862  -0.69927988   1.69432044
 H     1  -0.00000046  -1.39854830  -1.69431432
 H     1  -1.21113409   0.69928731  -1.69432001
 H     1   1.21113545   0.69928162  -1.69432008
 $END

