 $CONTRL SCFTYP=UHF ICHARG=0 MULT=1
 RUNTYP=OPTIMIZE
 $END
 $BASIS GBASIS=N31 NGAUSS=6 NDFUNC=1 $END 
 $DATA
 ... this is comment ...
 C1
 SI   14   0.00000000   0.00000000   0.12645075
 H     1   0.00000000   1.10020765  -0.92936238
 H     1   0.00000000  -1.10020765  -0.92936238
 $END

