 $CONTRL SCFTYP=UHF ICHARG=0 MULT=2
 RUNTYP=OPTIMIZE
 $END
 $BASIS GBASIS=N31 NGAUSS=6 NDFUNC=1 $END 
 $DATA
 ... this is comment ...
 C1
 SI   14   0.00000000   0.00000059   0.07865698
 H     1  -0.00000000   1.41799447  -0.37503320
 H     1   1.22801779  -0.70899804  -0.37503339
 H     1  -1.22801779  -0.70899803  -0.37503339
 $END

