 $CONTRL SCFTYP=UHF ICHARG=0 MULT=1
 RUNTYP=OPTIMIZE
 $END
 $BASIS GBASIS=N31 NGAUSS=6 NDFUNC=1 $END 
 $DATA
 ... this is comment ...
 C1
 SI   14   0.00000000   0.00000001   0.00000000
 H     1   0.85939409   0.85939410   0.85939409
 H     1  -0.85939408  -0.85939410   0.85939407
 H     1  -0.85939409   0.85939409  -0.85939408
 H     1   0.85939408  -0.85939410  -0.85939408
 $END

