 $CONTRL SCFTYP=UHF ICHARG=0 MULT=1
 RUNTYP=OPTIMIZE
 $END
 $BASIS GBASIS=N31 NGAUSS=6 NDFUNC=1 $END 
 $DATA
 ... this is comment ...
 C1
 S    16   0.00000000  -0.00000000   0.37238610
 O     8   0.00000000   1.27894135  -0.36862305
 O     8  -0.00000000  -1.27894135  -0.36862305
 $END

